(set-info :smt-lib-version 2.6)
(set-logic UF)
(set-info :source |Benchmarks from the paper: "Extending Sledgehammer with SMT Solvers" by Jasmin Blanchette, Sascha Bohme, and Lawrence C. Paulson, CADE 2011.  Translated to SMT2 by Andrew Reynolds and Morgan Deters.|)
(set-info :category "industrial")
(set-info :status unknown)
(declare-sort S1 0)
(declare-sort S2 0)
(declare-sort S3 0)
(declare-sort S4 0)
(declare-sort S5 0)
(declare-sort S6 0)
(declare-sort S7 0)
(declare-sort S8 0)
(declare-sort S9 0)
(declare-sort S10 0)
(declare-sort S11 0)
(declare-sort S12 0)
(declare-sort S13 0)
(declare-sort S14 0)
(declare-sort S15 0)
(declare-sort S16 0)
(declare-sort S17 0)
(declare-sort S18 0)
(declare-sort S19 0)
(declare-sort S20 0)
(declare-sort S21 0)
(declare-sort S22 0)
(declare-sort S23 0)
(declare-sort S24 0)
(declare-sort S25 0)
(declare-sort S26 0)
(declare-sort S27 0)
(declare-sort S28 0)
(declare-sort S29 0)
(declare-sort S30 0)
(declare-sort S31 0)
(declare-sort S32 0)
(declare-sort S33 0)
(declare-sort S34 0)
(declare-sort S35 0)
(declare-sort S36 0)
(declare-sort S37 0)
(declare-fun f1 () S1)
(declare-fun f2 () S1)
(declare-fun f3 (S3 S2) S1)
(declare-fun f4 () S3)
(declare-fun f5 (S4 S2 S5) S1)
(declare-fun f6 (S7 S5) S4)
(declare-fun f7 (S8 S6) S7)
(declare-fun f8 (S9 S4) S8)
(declare-fun f9 () S9)
(declare-fun f10 () S5)
(declare-fun f11 () S3)
(declare-fun f12 (S10 S6) S2)
(declare-fun f13 (S11 S2) S10)
(declare-fun f14 (S12 S2) S11)
(declare-fun f15 () S12)
(declare-fun f16 () S4)
(declare-fun f17 () S6)
(declare-fun f18 () S3)
(declare-fun f19 () S3)
(declare-fun f20 () S3)
(declare-fun f21 (S4) S3)
(declare-fun f22 (S13 S3) S3)
(declare-fun f23 (S3) S13)
(declare-fun f24 (S16 S15) S1)
(declare-fun f25 (S17 S5) S16)
(declare-fun f26 (S4 S2 S14) S17)
(declare-fun f27 (S4 S14 S15) S1)
(declare-fun f28 (S3 S14) S1)
(declare-fun f29 () S14)
(declare-fun f30 () S2)
(declare-fun f31 () S2)
(declare-fun f32 () S2)
(declare-fun f33 () S6)
(declare-fun f34 () S4)
(declare-fun f35 () S14)
(declare-fun f36 () S2)
(declare-fun f37 () S5)
(declare-fun f38 () S15)
(declare-fun f39 (S18 S5) S5)
(declare-fun f40 (S19 S5) S18)
(declare-fun f41 () S19)
(declare-fun f42 (S4 S6) S5)
(declare-fun f43 () S10)
(declare-fun f44 () S11)
(declare-fun f45 (S20 S14) S14)
(declare-fun f46 (S21 S2) S20)
(declare-fun f47 () S21)
(declare-fun f48 (S22 S15) S18)
(declare-fun f49 (S23 S19) S22)
(declare-fun f50 () S23)
(declare-fun f51 () S5)
(declare-fun f52 (S24 S2) S2)
(declare-fun f53 (S25 S2) S24)
(declare-fun f54 () S25)
(declare-fun f55 () S6)
(declare-fun f56 (S26 S14) S2)
(declare-fun f57 (S27 S2) S26)
(declare-fun f58 (S28 S25) S27)
(declare-fun f59 () S28)
(declare-fun f60 () S5)
(declare-fun f61 () S6)
(declare-fun f62 (S29 S15) S15)
(declare-fun f63 (S30 S5) S29)
(declare-fun f64 () S30)
(declare-fun f65 (S33 S31) S31)
(declare-fun f66 (S34 S32) S33)
(declare-fun f67 () S34)
(declare-fun f68 (S36 S32) S32)
(declare-fun f69 (S37 S35) S36)
(declare-fun f70 () S37)
(declare-fun f71 (S1 S17 S15) S1)
(assert (not (= f1 f2)))
(assert (forall ((?v0 S2)) (= (= (f3 f4 ?v0) f1) (and (forall ((?v1 S4) (?v2 S5) (?v3 S2) (?v4 S6)) (=> (= (f5 (f6 (f7 (f8 f9 ?v1) ?v4) f10) ?v0 ?v2) f1) (=> (= (f3 f11 ?v3) f1) (=> (= (f5 ?v1 ?v3 f10) f1) (= (f3 f11 (f12 (f13 (f14 f15 ?v0) ?v3) ?v4)) f1))))) (exists ((?v1 S5)) (= (f5 (f6 (f7 (f8 f9 f16) f17) f10) ?v0 ?v1) f1))))))
(assert (forall ((?v0 S2)) (= (= (f3 f18 ?v0) f1) (and (= (f3 f11 ?v0) f1) (forall ((?v1 S4) (?v2 S5) (?v3 S2) (?v4 S6)) (=> (= (f5 (f6 (f7 (f8 f9 ?v1) ?v4) f10) ?v0 ?v2) f1) (=> (= (f3 f11 ?v3) f1) (=> (= (f5 ?v1 ?v3 f10) f1) (= (f3 f11 (f12 (f13 (f14 f15 ?v0) ?v3) ?v4)) f1)))))))))
(assert (forall ((?v0 S2)) (= (= (f3 f19 ?v0) f1) (exists ((?v1 S5)) (= (f5 (f6 (f7 (f8 f9 f16) f17) f10) ?v0 ?v1) f1)))))
(assert (forall ((?v0 S2)) (= (= (f3 f20 ?v0) f1) (forall ((?v1 S4) (?v2 S5) (?v3 S2) (?v4 S6)) (=> (= (f5 (f6 (f7 (f8 f9 ?v1) ?v4) f10) ?v0 ?v2) f1) (=> (= (f3 f11 ?v3) f1) (=> (= (f5 ?v1 ?v3 f10) f1) (= (f3 f11 (f12 (f13 (f14 f15 ?v0) ?v3) ?v4)) f1))))))))
(assert (forall ((?v0 S4) (?v1 S2)) (= (= (f3 (f21 ?v0) ?v1) f1) (exists ((?v2 S5)) (= (f5 ?v0 ?v1 ?v2) f1)))))
(assert (forall ((?v0 S3) (?v1 S3) (?v2 S2)) (= (= (f3 (f22 (f23 ?v0) ?v1) ?v2) f1) (and (= (f3 ?v0 ?v2) f1) (= (f3 ?v1 ?v2) f1)))))
(assert (forall ((?v0 S4) (?v1 S2) (?v2 S14) (?v3 S5) (?v4 S15)) (= (= (f24 (f25 (f26 ?v0 ?v1 ?v2) ?v3) ?v4) f1) (and (= (f5 ?v0 ?v1 ?v3) f1) (= (f27 ?v0 ?v2 ?v4) f1)))))
(assert (not (= (f28 f4 f29) f1)))
(assert (= (f28 f20 f29) f1))
(assert (= (f28 f19 f29) f1))
(assert (= (f3 f11 f30) f1))
(assert (= (f3 f11 f31) f1))
(assert (= (f3 f11 f32) f1))
(assert (= f33 f17))
(assert (= (f28 f19 f29) f1))
(assert (= (f5 f34 f31 f10) f1))
(assert (= (f28 f20 f29) f1))
(assert (= (f5 f16 f32 f10) f1))
(assert (= (f28 f18 f35) f1))
(assert (= (f5 (f6 (f7 (f8 f9 f16) f17) f10) f36 f37) f1))
(assert (= (f27 (f6 (f7 (f8 f9 f16) f17) f10) f29 f38) f1))
(assert (forall ((?v0 S5) (?v1 S5) (?v2 S2) (?v3 S4) (?v4 S6) (?v5 S5) (?v6 S2)) (=> (= f10 (f39 (f40 f41 ?v0) ?v1)) (=> (= (f3 f11 ?v2) f1) (=> (= (f5 (f6 (f7 (f8 f9 ?v3) ?v4) ?v0) ?v2 ?v5) f1) (=> (= (f3 f11 ?v6) f1) (=> (= (f5 ?v3 ?v6 ?v0) f1) (= (f3 f11 (f12 (f13 (f14 f15 ?v2) ?v6) ?v4)) f1))))))))
(assert (forall ((?v0 S5) (?v1 S5) (?v2 S2) (?v3 S4) (?v4 S6) (?v5 S5) (?v6 S2)) (=> (= f10 (f39 (f40 f41 ?v0) ?v1)) (=> (= (f3 f11 ?v2) f1) (=> (= (f5 (f6 (f7 (f8 f9 ?v3) ?v4) ?v1) ?v2 ?v5) f1) (=> (= (f3 f11 ?v6) f1) (=> (= (f5 ?v3 ?v6 ?v1) f1) (= (f3 f11 (f12 (f13 (f14 f15 ?v2) ?v6) ?v4)) f1))))))))
(assert (forall ((?v0 S4) (?v1 S2) (?v2 S5) (?v3 S4) (?v4 S2) (?v5 S5) (?v6 S6)) (=> (= (f5 ?v0 ?v1 ?v2) f1) (=> (= (f5 ?v3 ?v4 ?v5) f1) (=> (= ?v0 (f6 (f7 (f8 f9 ?v3) ?v6) ?v5)) (= (f5 ?v3 (f12 (f13 (f14 f15 ?v1) ?v4) ?v6) ?v2) f1))))))
(assert (forall ((?v0 S3) (?v1 S3) (?v2 S14)) (= (= (f28 (f22 (f23 ?v0) ?v1) ?v2) f1) (and (= (f28 ?v0 ?v2) f1) (= (f28 ?v1 ?v2) f1)))))
(assert (forall ((?v0 S6) (?v1 S6) (?v2 S4) (?v3 S5)) (=> (= ?v0 ?v1) (= (f42 (f6 (f7 (f8 f9 ?v2) ?v0) ?v3) ?v1) ?v3))))
(assert (forall ((?v0 S4) (?v1 S14) (?v2 S15)) (=> (= (f27 ?v0 ?v1 ?v2) f1) (= (f28 (f21 ?v0) ?v1) f1))))
(assert (forall ((?v0 S2) (?v1 S6) (?v2 S6)) (=> (= (f3 f11 ?v0) f1) (= (f3 f11 (f12 (f13 (f14 f15 ?v0) (f12 f43 ?v1)) ?v2)) f1))))
(assert (forall ((?v0 S4) (?v1 S2) (?v2 S5) (?v3 S6) (?v4 S5)) (=> (= (f5 ?v0 ?v1 ?v2) f1) (= (f5 (f6 (f7 (f8 f9 ?v0) ?v3) ?v4) (f12 (f13 f44 ?v1) ?v3) ?v2) f1))))
(assert (forall ((?v0 S4) (?v1 S6) (?v2 S5)) (=> (= (f5 ?v0 (f12 f43 ?v1) ?v2) f1) (=> (=> (= (f42 ?v0 ?v1) ?v2) false) false))))
(assert (forall ((?v0 S4) (?v1 S6) (?v2 S5)) (=> (= (f42 ?v0 ?v1) ?v2) (= (f5 ?v0 (f12 f43 ?v1) ?v2) f1))))
(assert (forall ((?v0 S2) (?v1 S6)) (=> (= (f3 f11 ?v0) f1) (= (f3 f11 (f12 (f13 f44 ?v0) ?v1)) f1))))
(assert (= f35 (f45 (f46 f47 f36) f29)))
(assert (forall ((?v0 S5) (?v1 S5) (?v2 S5) (?v3 S5)) (= (= (f39 (f40 f41 ?v0) ?v1) (f39 (f40 f41 ?v2) ?v3)) (and (= ?v0 ?v2) (= ?v1 ?v3)))))
(assert (forall ((?v0 S6)) (= (f3 f11 (f12 f43 ?v0)) f1)))
(assert (= (f5 (f6 (f7 (f8 f9 f16) f17) f10) (f12 f43 f33) (f39 (f40 f41 f37) (f39 (f48 (f49 f50 f41) f38) f51))) f1))
(assert (= (f3 f11 (f52 (f53 f54 f32) (f12 (f13 (f14 f15 f36) f32) f17))) f1))
(assert (=> (forall ((?v0 S5)) (let ((?v_0 (f6 (f7 (f8 f9 f16) f17) f10))) (=> (= (f5 ?v_0 (f12 f43 f33) (f39 (f40 f41 ?v0) (f39 (f48 (f49 f50 f41) f38) f51))) f1) (=> (= (f5 ?v_0 f36 ?v0) f1) false)))) false))
(assert (= (f5 f16 f32 (f39 (f40 f41 f37) (f39 (f48 (f49 f50 f41) f38) f51))) f1))
(assert (= (f5 (f6 (f7 (f8 f9 f16) f17) f10) (f52 (f53 f54 (f12 f43 f33)) f36) (f39 (f48 (f49 f50 f41) f38) f51)) f1))
(assert (= (f5 (f6 (f7 (f8 f9 f34) f55) f10) (f56 (f57 (f58 f59 f54) (f12 f43 f33)) f35) f60) f1))
(assert (forall ((?v0 S2) (?v1 S6) (?v2 S2)) (= (f12 (f13 (f14 f15 (f12 (f13 f44 ?v0) ?v1)) ?v2) ?v1) ?v0)))
(assert (= f10 (f39 (f40 f41 f37) (f39 (f48 (f49 f50 f41) f38) f51))))
(assert (forall ((?v0 S6) (?v1 S2)) (= (f12 (f13 (f14 f15 (f12 f43 ?v0)) ?v1) ?v0) ?v1)))
(assert (= (f3 f11 (f12 (f13 (f14 f15 (f52 (f53 f54 (f12 (f13 f44 f32) f61)) (f12 f43 f61))) (f12 (f13 (f14 f15 f36) f32) f17)) f61)) f1))
(assert (= (f5 (f6 (f7 (f8 f9 f16) f17) f10) (f56 (f57 (f58 f59 f54) (f12 f43 f33)) f35) f51) f1))
(assert (forall ((?v0 S4) (?v1 S2) (?v2 S5) (?v3 S5) (?v4 S2)) (=> (= (f5 ?v0 ?v1 (f39 (f40 f41 ?v2) ?v3)) f1) (=> (= (f5 ?v0 ?v4 ?v2) f1) (= (f5 ?v0 (f52 (f53 f54 ?v1) ?v4) ?v3) f1)))))
(assert (= (f5 (f6 (f7 (f8 f9 f16) f17) f10) (f56 (f57 (f58 f59 f54) (f52 (f53 f54 (f12 f43 f33)) f36)) f29) f51) f1))
(assert (=> (forall ((?v0 S15)) (let ((?v_0 (f6 (f7 (f8 f9 f16) f17) f10))) (=> (= (f5 ?v_0 (f52 (f53 f54 (f12 f43 f33)) f36) (f39 (f48 (f49 f50 f41) ?v0) f51)) f1) (=> (= (f27 ?v_0 f29 ?v0) f1) false)))) false))
(assert (forall ((?v0 S15) (?v1 S5)) (not (= ?v0 (f62 (f63 f64 ?v1) ?v0)))))
(assert (forall ((?v0 S14) (?v1 S2)) (not (= ?v0 (f45 (f46 f47 ?v1) ?v0)))))
(assert (forall ((?v0 S31) (?v1 S32)) (not (= ?v0 (f65 (f66 f67 ?v1) ?v0)))))
(assert (forall ((?v0 S32) (?v1 S35)) (not (= ?v0 (f68 (f69 f70 ?v1) ?v0)))))
(assert (forall ((?v0 S5) (?v1 S15)) (not (= (f62 (f63 f64 ?v0) ?v1) ?v1))))
(assert (forall ((?v0 S2) (?v1 S14)) (not (= (f45 (f46 f47 ?v0) ?v1) ?v1))))
(assert (forall ((?v0 S32) (?v1 S31)) (not (= (f65 (f66 f67 ?v0) ?v1) ?v1))))
(assert (forall ((?v0 S35) (?v1 S32)) (not (= (f68 (f69 f70 ?v0) ?v1) ?v1))))
(assert (forall ((?v0 S5) (?v1 S15) (?v2 S5) (?v3 S15)) (= (= (f62 (f63 f64 ?v0) ?v1) (f62 (f63 f64 ?v2) ?v3)) (and (= ?v0 ?v2) (= ?v1 ?v3)))))
(assert (forall ((?v0 S2) (?v1 S14) (?v2 S2) (?v3 S14)) (= (= (f45 (f46 f47 ?v0) ?v1) (f45 (f46 f47 ?v2) ?v3)) (and (= ?v0 ?v2) (= ?v1 ?v3)))))
(assert (forall ((?v0 S32) (?v1 S31) (?v2 S32) (?v3 S31)) (= (= (f65 (f66 f67 ?v0) ?v1) (f65 (f66 f67 ?v2) ?v3)) (and (= ?v0 ?v2) (= ?v1 ?v3)))))
(assert (forall ((?v0 S35) (?v1 S32) (?v2 S35) (?v3 S32)) (= (= (f68 (f69 f70 ?v0) ?v1) (f68 (f69 f70 ?v2) ?v3)) (and (= ?v0 ?v2) (= ?v1 ?v3)))))
(assert (forall ((?v0 S25) (?v1 S2) (?v2 S2) (?v3 S14)) (let ((?v_0 (f58 f59 ?v0))) (= (f56 (f57 ?v_0 ?v1) (f45 (f46 f47 ?v2) ?v3)) (f56 (f57 ?v_0 (f52 (f53 ?v0 ?v1) ?v2)) ?v3)))))
(assert (forall ((?v0 S19) (?v1 S5) (?v2 S15) (?v3 S5)) (let ((?v_0 (f49 f50 ?v0))) (= (f39 (f48 ?v_0 (f62 (f63 f64 ?v1) ?v2)) ?v3) (f39 (f40 ?v0 ?v1) (f39 (f48 ?v_0 ?v2) ?v3))))))
(assert (forall ((?v0 S2) (?v1 S2) (?v2 S2) (?v3 S2)) (= (= (f52 (f53 f54 ?v0) ?v1) (f52 (f53 f54 ?v2) ?v3)) (and (= ?v0 ?v2) (= ?v1 ?v3)))))
(assert (forall ((?v0 S2) (?v1 S2) (?v2 S6)) (not (= (f52 (f53 f54 ?v0) ?v1) (f12 f43 ?v2)))))
(assert (forall ((?v0 S6) (?v1 S2) (?v2 S2)) (not (= (f12 f43 ?v0) (f52 (f53 f54 ?v1) ?v2)))))
(assert (forall ((?v0 S2) (?v1 S2) (?v2 S2) (?v3 S6)) (= (f12 (f13 (f14 f15 (f52 (f53 f54 ?v0) ?v1)) ?v2) ?v3) (f52 (f53 f54 (f12 (f13 (f14 f15 ?v0) ?v2) ?v3)) (f12 (f13 (f14 f15 ?v1) ?v2) ?v3)))))
(assert (forall ((?v0 S2) (?v1 S2) (?v2 S6)) (= (f12 (f13 f44 (f52 (f53 f54 ?v0) ?v1)) ?v2) (f52 (f53 f54 (f12 (f13 f44 ?v0) ?v2)) (f12 (f13 f44 ?v1) ?v2)))))
(assert (forall ((?v0 S4) (?v1 S6) (?v2 S14) (?v3 S5) (?v4 S5)) (let ((?v_0 (f56 (f57 (f58 f59 f54) (f12 f43 ?v1)) ?v2))) (=> (= (f5 ?v0 ?v_0 ?v3) f1) (=> (= (f5 ?v0 ?v_0 ?v4) f1) (= ?v3 ?v4))))))
(assert (forall ((?v0 S4) (?v1 S2) (?v2 S15) (?v3 S5) (?v4 S14)) (=> (= (f5 ?v0 ?v1 (f39 (f48 (f49 f50 f41) ?v2) ?v3)) f1) (=> (= (f27 ?v0 ?v4 ?v2) f1) (= (f5 ?v0 (f56 (f57 (f58 f59 f54) ?v1) ?v4) ?v3) f1)))))
(assert (forall ((?v0 S2) (?v1 S6)) (=> (= (f3 f11 ?v0) f1) (= (f3 f11 (f52 (f53 f54 ?v0) (f12 f43 ?v1))) f1))))
(assert (forall ((?v0 S6) (?v1 S6)) (= (= (f12 f43 ?v0) (f12 f43 ?v1)) (= ?v0 ?v1))))
(assert (forall ((?v0 S14) (?v1 S6)) (=> (= (f28 f11 ?v0) f1) (= (f3 f11 (f56 (f57 (f58 f59 f54) (f12 f43 ?v1)) ?v0)) f1))))
(assert (forall ((?v0 S4) (?v1 S2) (?v2 S2) (?v3 S5)) (=> (= (f5 ?v0 (f52 (f53 f54 ?v1) ?v2) ?v3) f1) (=> (forall ((?v4 S5)) (=> (= (f5 ?v0 ?v1 (f39 (f40 f41 ?v4) ?v3)) f1) (=> (= (f5 ?v0 ?v2 ?v4) f1) false))) false))))
(assert (forall ((?v0 S4) (?v1 S6) (?v2 S14) (?v3 S14) (?v4 S5) (?v5 S15) (?v6 S5)) (let ((?v_0 (f58 f59 f54))) (let ((?v_1 (f56 (f57 ?v_0 (f12 f43 ?v1)) ?v2))) (=> (= (f5 ?v0 (f56 (f57 ?v_0 ?v_1) ?v3) ?v4) f1) (=> (= (f27 ?v0 ?v2 ?v5) f1) (=> (= (f5 ?v0 ?v_1 ?v6) f1) (exists ((?v7 S15)) (and (= ?v6 (f39 (f48 (f49 f50 f41) ?v7) ?v4)) (= (f27 ?v0 ?v3 ?v7) f1))))))))))
(assert (forall ((?v0 S4) (?v1 S6) (?v2 S14) (?v3 S5)) (=> (= (f5 ?v0 (f56 (f57 (f58 f59 f54) (f12 f43 ?v1)) ?v2) ?v3) f1) (=> (forall ((?v4 S15)) (=> (= (f5 ?v0 (f12 f43 ?v1) (f39 (f48 (f49 f50 f41) ?v4) ?v3)) f1) (=> (= (f27 ?v0 ?v2 ?v4) f1) false))) false))))
(assert (forall ((?v0 S4) (?v1 S2) (?v2 S14) (?v3 S5)) (=> (= (f5 ?v0 (f56 (f57 (f58 f59 f54) ?v1) ?v2) ?v3) f1) (=> (forall ((?v4 S15)) (=> (= (f5 ?v0 ?v1 (f39 (f48 (f49 f50 f41) ?v4) ?v3)) f1) (=> (= (f27 ?v0 ?v2 ?v4) f1) false))) false))))
(assert (forall ((?v0 S4) (?v1 S2) (?v2 S14) (?v3 S5)) (=> (= (f5 ?v0 (f56 (f57 (f58 f59 f54) ?v1) ?v2) ?v3) f1) (exists ((?v4 S15)) (and (= (f5 ?v0 ?v1 (f39 (f48 (f49 f50 f41) ?v4) ?v3)) f1) (= (f27 ?v0 ?v2 ?v4) f1))))))
(assert (forall ((?v0 S4) (?v1 S2) (?v2 S14) (?v3 S15)) (= (= (f27 ?v0 (f45 (f46 f47 ?v1) ?v2) ?v3) f1) (= (f71 f2 (f26 ?v0 ?v1 ?v2) ?v3) f1))))
(assert (forall ((?v0 S6) (?v1 S14) (?v2 S6) (?v3 S14)) (let ((?v_0 (f58 f59 f54))) (= (= (f56 (f57 ?v_0 (f12 f43 ?v0)) ?v1) (f56 (f57 ?v_0 (f12 f43 ?v2)) ?v3)) (and (= ?v0 ?v2) (= ?v1 ?v3))))))
(check-sat)
(exit)
